\ Model SP
\ LP format - for model browsing. Use MPS format to capture full model detail.
Minimize
  6 r(0,1,0) + 6 r(0,1,1) + 6 r(0,1,2) + 6 r(0,1,3) + 6 r(0,1,4)
   + 7.5 r(0,2,0) + 7.5 r(0,2,1) + 7.5 r(0,2,2) + 7.5 r(0,2,3)
   + 7.5 r(0,2,4) + 9 r(0,3,0) + 9 r(0,3,1) + 9 r(0,3,2) + 9 r(0,3,3)
   + 9 r(0,3,4) + 6 r(1,1,0) + 6 r(1,1,1) + 6 r(1,1,2) + 6 r(1,1,3)
   + 6 r(1,1,4) + 7.5 r(1,2,0) + 7.5 r(1,2,1) + 7.5 r(1,2,2) + 7.5 r(1,2,3)
   + 7.5 r(1,2,4) + 9 r(1,3,0) + 9 r(1,3,1) + 9 r(1,3,2) + 9 r(1,3,3)
   + 9 r(1,3,4) + 6 r(2,1,0) + 6 r(2,1,1) + 6 r(2,1,2) + 6 r(2,1,3)
   + 6 r(2,1,4) + 7.5 r(2,2,0) + 7.5 r(2,2,1) + 7.5 r(2,2,2) + 7.5 r(2,2,3)
   + 7.5 r(2,2,4) + 9 r(2,3,0) + 9 r(2,3,1) + 9 r(2,3,2) + 9 r(2,3,3)
   + 9 r(2,3,4) + 6 r(3,1,0) + 6 r(3,1,1) + 6 r(3,1,2) + 6 r(3,1,3)
   + 6 r(3,1,4) + 7.5 r(3,2,0) + 7.5 r(3,2,1) + 7.5 r(3,2,2) + 7.5 r(3,2,3)
   + 7.5 r(3,2,4) + 9 r(3,3,0) + 9 r(3,3,1) + 9 r(3,3,2) + 9 r(3,3,3)
   + 9 r(3,3,4) + 6 r(4,1,0) + 6 r(4,1,1) + 6 r(4,1,2) + 6 r(4,1,3)
   + 6 r(4,1,4) + 7.5 r(4,2,0) + 7.5 r(4,2,1) + 7.5 r(4,2,2) + 7.5 r(4,2,3)
   + 7.5 r(4,2,4) + 9 r(4,3,0) + 9 r(4,3,1) + 9 r(4,3,2) + 9 r(4,3,3)
   + 9 r(4,3,4) + 20.1 n(0,1,0) + 20.1 n(0,1,1) + 20.1 n(0,1,2)
   + 20.1 n(0,1,3) + 20.1 n(0,1,4) + 20.1 n(0,2,0) + 20.1 n(0,2,1)
   + 20.1 n(0,2,2) + 20.1 n(0,2,3) + 20.1 n(0,2,4) + 20.1 n(0,3,0)
   + 20.1 n(0,3,1) + 20.1 n(0,3,2) + 20.1 n(0,3,3) + 20.1 n(0,3,4)
   + 26.1 n(1,1,0) + 26.1 n(1,1,1) + 26.1 n(1,1,2) + 26.1 n(1,1,3)
   + 26.1 n(1,1,4) + 26.1 n(1,2,0) + 26.1 n(1,2,1) + 26.1 n(1,2,2)
   + 26.1 n(1,2,3) + 26.1 n(1,2,4) + 26.1 n(1,3,0) + 26.1 n(1,3,1)
   + 26.1 n(1,3,2) + 26.1 n(1,3,3) + 26.1 n(1,3,4) + 22.5 n(2,1,0)
   + 22.5 n(2,1,1) + 22.5 n(2,1,2) + 22.5 n(2,1,3) + 22.5 n(2,1,4)
   + 22.5 n(2,2,0) + 22.5 n(2,2,1) + 22.5 n(2,2,2) + 22.5 n(2,2,3)
   + 22.5 n(2,2,4) + 22.5 n(2,3,0) + 22.5 n(2,3,1) + 22.5 n(2,3,2)
   + 22.5 n(2,3,3) + 22.5 n(2,3,4) + 18.9 n(3,1,0) + 18.9 n(3,1,1)
   + 18.9 n(3,1,2) + 18.9 n(3,1,3) + 18.9 n(3,1,4) + 18.9 n(3,2,0)
   + 18.9 n(3,2,1) + 18.9 n(3,2,2) + 18.9 n(3,2,3) + 18.9 n(3,2,4)
   + 18.9 n(3,3,0) + 18.9 n(3,3,1) + 18.9 n(3,3,2) + 18.9 n(3,3,3)
   + 18.9 n(3,3,4) + 17.4 n(4,1,0) + 17.4 n(4,1,1) + 17.4 n(4,1,2)
   + 17.4 n(4,1,3) + 17.4 n(4,1,4) + 17.4 n(4,2,0) + 17.4 n(4,2,1)
   + 17.4 n(4,2,2) + 17.4 n(4,2,3) + 17.4 n(4,2,4) + 17.4 n(4,3,0)
   + 17.4 n(4,3,1) + 17.4 n(4,3,2) + 17.4 n(4,3,3) + 17.4 n(4,3,4)
Subject To
 C1_client_to_cluster(5): x(5,0) + x(5,1) + x(5,2) + x(5,3) + x(5,4) = 1
 C1_client_to_cluster(6): x(6,0) + x(6,1) + x(6,2) + x(6,3) + x(6,4) = 1
 C1_client_to_cluster(7): x(7,0) + x(7,1) + x(7,2) + x(7,3) + x(7,4) = 1
 C1_client_to_cluster(8): x(8,0) + x(8,1) + x(8,2) + x(8,3) + x(8,4) = 1
 C1_client_to_cluster(9): x(9,0) + x(9,1) + x(9,2) + x(9,3) + x(9,4) = 1
 C1_client_to_cluster(10): x(10,0) + x(10,1) + x(10,2) + x(10,3) + x(10,4)
   = 1
 C1_client_to_cluster(11): x(11,0) + x(11,1) + x(11,2) + x(11,3) + x(11,4)
   = 1
 C1_client_to_cluster(12): x(12,0) + x(12,1) + x(12,2) + x(12,3) + x(12,4)
   = 1
 C1_client_to_cluster(13): x(13,0) + x(13,1) + x(13,2) + x(13,3) + x(13,4)
   = 1
 C1_client_to_cluster(14): x(14,0) + x(14,1) + x(14,2) + x(14,3) + x(14,4)
   = 1
 C1_client_to_cluster(15): x(15,0) + x(15,1) + x(15,2) + x(15,3) + x(15,4)
   = 1
 C1_client_to_cluster(16): x(16,0) + x(16,1) + x(16,2) + x(16,3) + x(16,4)
   = 1
 C1_client_to_cluster(17): x(17,0) + x(17,1) + x(17,2) + x(17,3) + x(17,4)
   = 1
 C1_client_to_cluster(18): x(18,0) + x(18,1) + x(18,2) + x(18,3) + x(18,4)
   = 1
 C1_client_to_cluster(19): x(19,0) + x(19,1) + x(19,2) + x(19,3) + x(19,4)
   = 1
 C2_one_size_only(0): r(0,1,0) + r(0,1,1) + r(0,1,2) + r(0,1,3) + r(0,1,4)
   + r(0,2,0) + r(0,2,1) + r(0,2,2) + r(0,2,3) + r(0,2,4) + r(0,3,0)
   + r(0,3,1) + r(0,3,2) + r(0,3,3) + r(0,3,4) - y(0) = 0
 C2_one_size_only(1): r(1,1,0) + r(1,1,1) + r(1,1,2) + r(1,1,3) + r(1,1,4)
   + r(1,2,0) + r(1,2,1) + r(1,2,2) + r(1,2,3) + r(1,2,4) + r(1,3,0)
   + r(1,3,1) + r(1,3,2) + r(1,3,3) + r(1,3,4) - y(1) = 0
 C2_one_size_only(2): r(2,1,0) + r(2,1,1) + r(2,1,2) + r(2,1,3) + r(2,1,4)
   + r(2,2,0) + r(2,2,1) + r(2,2,2) + r(2,2,3) + r(2,2,4) + r(2,3,0)
   + r(2,3,1) + r(2,3,2) + r(2,3,3) + r(2,3,4) - y(2) = 0
 C2_one_size_only(3): r(3,1,0) + r(3,1,1) + r(3,1,2) + r(3,1,3) + r(3,1,4)
   + r(3,2,0) + r(3,2,1) + r(3,2,2) + r(3,2,3) + r(3,2,4) + r(3,3,0)
   + r(3,3,1) + r(3,3,2) + r(3,3,3) + r(3,3,4) - y(3) = 0
 C2_one_size_only(4): r(4,1,0) + r(4,1,1) + r(4,1,2) + r(4,1,3) + r(4,1,4)
   + r(4,2,0) + r(4,2,1) + r(4,2,2) + r(4,2,3) + r(4,2,4) + r(4,3,0)
   + r(4,3,1) + r(4,3,2) + r(4,3,3) + r(4,3,4) - y(4) = 0
 C3_demand_to_cluster(0): 62 x(5,0) + 65 x(6,0) + 71 x(7,0) + 50 x(8,0)
   + 53 x(9,0) + 77 x(10,0) + 53 x(11,0) + 57 x(12,0) + 59 x(13,0)
   + 69 x(14,0) + 71 x(15,0) + 68 x(16,0) + 54 x(17,0) + 73 x(18,0)
   + 56 x(19,0) - 350 r(0,1,0) - 700 r(0,2,0) - 1050 r(0,3,0)
   - 350 r(1,1,0) - 700 r(1,2,0) - 1050 r(1,3,0) - 350 r(2,1,0)
   - 700 r(2,2,0) - 1050 r(2,3,0) - 350 r(3,1,0) - 700 r(3,2,0)
   - 1050 r(3,3,0) - 350 r(4,1,0) - 700 r(4,2,0) - 1050 r(4,3,0)
   - 150 n(0,1,0) - 300 n(0,2,0) - 450 n(0,3,0) - 150 n(1,1,0)
   - 300 n(1,2,0) - 450 n(1,3,0) - 150 n(2,1,0) - 300 n(2,2,0)
   - 450 n(2,3,0) - 150 n(3,1,0) - 300 n(3,2,0) - 450 n(3,3,0)
   - 150 n(4,1,0) - 300 n(4,2,0) - 450 n(4,3,0) <= 0
 C3_demand_to_cluster(1): 62 x(5,1) + 65 x(6,1) + 71 x(7,1) + 50 x(8,1)
   + 53 x(9,1) + 77 x(10,1) + 53 x(11,1) + 57 x(12,1) + 59 x(13,1)
   + 69 x(14,1) + 71 x(15,1) + 68 x(16,1) + 54 x(17,1) + 73 x(18,1)
   + 56 x(19,1) - 350 r(0,1,1) - 700 r(0,2,1) - 1050 r(0,3,1)
   - 350 r(1,1,1) - 700 r(1,2,1) - 1050 r(1,3,1) - 350 r(2,1,1)
   - 700 r(2,2,1) - 1050 r(2,3,1) - 350 r(3,1,1) - 700 r(3,2,1)
   - 1050 r(3,3,1) - 350 r(4,1,1) - 700 r(4,2,1) - 1050 r(4,3,1)
   - 150 n(0,1,1) - 300 n(0,2,1) - 450 n(0,3,1) - 150 n(1,1,1)
   - 300 n(1,2,1) - 450 n(1,3,1) - 150 n(2,1,1) - 300 n(2,2,1)
   - 450 n(2,3,1) - 150 n(3,1,1) - 300 n(3,2,1) - 450 n(3,3,1)
   - 150 n(4,1,1) - 300 n(4,2,1) - 450 n(4,3,1) <= 0
 C3_demand_to_cluster(2): 62 x(5,2) + 65 x(6,2) + 71 x(7,2) + 50 x(8,2)
   + 53 x(9,2) + 77 x(10,2) + 53 x(11,2) + 57 x(12,2) + 59 x(13,2)
   + 69 x(14,2) + 71 x(15,2) + 68 x(16,2) + 54 x(17,2) + 73 x(18,2)
   + 56 x(19,2) - 350 r(0,1,2) - 700 r(0,2,2) - 1050 r(0,3,2)
   - 350 r(1,1,2) - 700 r(1,2,2) - 1050 r(1,3,2) - 350 r(2,1,2)
   - 700 r(2,2,2) - 1050 r(2,3,2) - 350 r(3,1,2) - 700 r(3,2,2)
   - 1050 r(3,3,2) - 350 r(4,1,2) - 700 r(4,2,2) - 1050 r(4,3,2)
   - 150 n(0,1,2) - 300 n(0,2,2) - 450 n(0,3,2) - 150 n(1,1,2)
   - 300 n(1,2,2) - 450 n(1,3,2) - 150 n(2,1,2) - 300 n(2,2,2)
   - 450 n(2,3,2) - 150 n(3,1,2) - 300 n(3,2,2) - 450 n(3,3,2)
   - 150 n(4,1,2) - 300 n(4,2,2) - 450 n(4,3,2) <= 0
 C3_demand_to_cluster(3): 62 x(5,3) + 65 x(6,3) + 71 x(7,3) + 50 x(8,3)
   + 53 x(9,3) + 77 x(10,3) + 53 x(11,3) + 57 x(12,3) + 59 x(13,3)
   + 69 x(14,3) + 71 x(15,3) + 68 x(16,3) + 54 x(17,3) + 73 x(18,3)
   + 56 x(19,3) - 350 r(0,1,3) - 700 r(0,2,3) - 1050 r(0,3,3)
   - 350 r(1,1,3) - 700 r(1,2,3) - 1050 r(1,3,3) - 350 r(2,1,3)
   - 700 r(2,2,3) - 1050 r(2,3,3) - 350 r(3,1,3) - 700 r(3,2,3)
   - 1050 r(3,3,3) - 350 r(4,1,3) - 700 r(4,2,3) - 1050 r(4,3,3)
   - 150 n(0,1,3) - 300 n(0,2,3) - 450 n(0,3,3) - 150 n(1,1,3)
   - 300 n(1,2,3) - 450 n(1,3,3) - 150 n(2,1,3) - 300 n(2,2,3)
   - 450 n(2,3,3) - 150 n(3,1,3) - 300 n(3,2,3) - 450 n(3,3,3)
   - 150 n(4,1,3) - 300 n(4,2,3) - 450 n(4,3,3) <= 0
 C3_demand_to_cluster(4): 62 x(5,4) + 65 x(6,4) + 71 x(7,4) + 50 x(8,4)
   + 53 x(9,4) + 77 x(10,4) + 53 x(11,4) + 57 x(12,4) + 59 x(13,4)
   + 69 x(14,4) + 71 x(15,4) + 68 x(16,4) + 54 x(17,4) + 73 x(18,4)
   + 56 x(19,4) - 350 r(0,1,4) - 700 r(0,2,4) - 1050 r(0,3,4)
   - 350 r(1,1,4) - 700 r(1,2,4) - 1050 r(1,3,4) - 350 r(2,1,4)
   - 700 r(2,2,4) - 1050 r(2,3,4) - 350 r(3,1,4) - 700 r(3,2,4)
   - 1050 r(3,3,4) - 350 r(4,1,4) - 700 r(4,2,4) - 1050 r(4,3,4)
   - 150 n(0,1,4) - 300 n(0,2,4) - 450 n(0,3,4) - 150 n(1,1,4)
   - 300 n(1,2,4) - 450 n(1,3,4) - 150 n(2,1,4) - 300 n(2,2,4)
   - 450 n(2,3,4) - 150 n(3,1,4) - 300 n(3,2,4) - 450 n(3,3,4)
   - 150 n(4,1,4) - 300 n(4,2,4) - 450 n(4,3,4) <= 0
 C4_facility_to_cluster(5,0): x(5,0) - r(0,1,0) - r(0,2,0) - r(0,3,0)
   - r(1,1,0) - r(1,2,0) - r(1,3,0) - r(2,1,0) - r(2,2,0) - r(2,3,0)
   - r(3,1,0) - r(3,2,0) - r(3,3,0) - r(4,1,0) - r(4,2,0) - r(4,3,0) <= 0
 C4_facility_to_cluster(5,1): x(5,1) - r(0,1,1) - r(0,2,1) - r(0,3,1)
   - r(1,1,1) - r(1,2,1) - r(1,3,1) - r(2,1,1) - r(2,2,1) - r(2,3,1)
   - r(3,1,1) - r(3,2,1) - r(3,3,1) - r(4,1,1) - r(4,2,1) - r(4,3,1) <= 0
 C4_facility_to_cluster(5,2): x(5,2) - r(0,1,2) - r(0,2,2) - r(0,3,2)
   - r(1,1,2) - r(1,2,2) - r(1,3,2) - r(2,1,2) - r(2,2,2) - r(2,3,2)
   - r(3,1,2) - r(3,2,2) - r(3,3,2) - r(4,1,2) - r(4,2,2) - r(4,3,2) <= 0
 C4_facility_to_cluster(5,3): x(5,3) - r(0,1,3) - r(0,2,3) - r(0,3,3)
   - r(1,1,3) - r(1,2,3) - r(1,3,3) - r(2,1,3) - r(2,2,3) - r(2,3,3)
   - r(3,1,3) - r(3,2,3) - r(3,3,3) - r(4,1,3) - r(4,2,3) - r(4,3,3) <= 0
 C4_facility_to_cluster(5,4): x(5,4) - r(0,1,4) - r(0,2,4) - r(0,3,4)
   - r(1,1,4) - r(1,2,4) - r(1,3,4) - r(2,1,4) - r(2,2,4) - r(2,3,4)
   - r(3,1,4) - r(3,2,4) - r(3,3,4) - r(4,1,4) - r(4,2,4) - r(4,3,4) <= 0
 C4_facility_to_cluster(6,0): x(6,0) - r(0,1,0) - r(0,2,0) - r(0,3,0)
   - r(1,1,0) - r(1,2,0) - r(1,3,0) - r(2,1,0) - r(2,2,0) - r(2,3,0)
   - r(3,1,0) - r(3,2,0) - r(3,3,0) - r(4,1,0) - r(4,2,0) - r(4,3,0) <= 0
 C4_facility_to_cluster(6,1): x(6,1) - r(0,1,1) - r(0,2,1) - r(0,3,1)
   - r(1,1,1) - r(1,2,1) - r(1,3,1) - r(2,1,1) - r(2,2,1) - r(2,3,1)
   - r(3,1,1) - r(3,2,1) - r(3,3,1) - r(4,1,1) - r(4,2,1) - r(4,3,1) <= 0
 C4_facility_to_cluster(6,2): x(6,2) - r(0,1,2) - r(0,2,2) - r(0,3,2)
   - r(1,1,2) - r(1,2,2) - r(1,3,2) - r(2,1,2) - r(2,2,2) - r(2,3,2)
   - r(3,1,2) - r(3,2,2) - r(3,3,2) - r(4,1,2) - r(4,2,2) - r(4,3,2) <= 0
 C4_facility_to_cluster(6,3): x(6,3) - r(0,1,3) - r(0,2,3) - r(0,3,3)
   - r(1,1,3) - r(1,2,3) - r(1,3,3) - r(2,1,3) - r(2,2,3) - r(2,3,3)
   - r(3,1,3) - r(3,2,3) - r(3,3,3) - r(4,1,3) - r(4,2,3) - r(4,3,3) <= 0
 C4_facility_to_cluster(6,4): x(6,4) - r(0,1,4) - r(0,2,4) - r(0,3,4)
   - r(1,1,4) - r(1,2,4) - r(1,3,4) - r(2,1,4) - r(2,2,4) - r(2,3,4)
   - r(3,1,4) - r(3,2,4) - r(3,3,4) - r(4,1,4) - r(4,2,4) - r(4,3,4) <= 0
 C4_facility_to_cluster(7,0): x(7,0) - r(0,1,0) - r(0,2,0) - r(0,3,0)
   - r(1,1,0) - r(1,2,0) - r(1,3,0) - r(2,1,0) - r(2,2,0) - r(2,3,0)
   - r(3,1,0) - r(3,2,0) - r(3,3,0) - r(4,1,0) - r(4,2,0) - r(4,3,0) <= 0
 C4_facility_to_cluster(7,1): x(7,1) - r(0,1,1) - r(0,2,1) - r(0,3,1)
   - r(1,1,1) - r(1,2,1) - r(1,3,1) - r(2,1,1) - r(2,2,1) - r(2,3,1)
   - r(3,1,1) - r(3,2,1) - r(3,3,1) - r(4,1,1) - r(4,2,1) - r(4,3,1) <= 0
 C4_facility_to_cluster(7,2): x(7,2) - r(0,1,2) - r(0,2,2) - r(0,3,2)
   - r(1,1,2) - r(1,2,2) - r(1,3,2) - r(2,1,2) - r(2,2,2) - r(2,3,2)
   - r(3,1,2) - r(3,2,2) - r(3,3,2) - r(4,1,2) - r(4,2,2) - r(4,3,2) <= 0
 C4_facility_to_cluster(7,3): x(7,3) - r(0,1,3) - r(0,2,3) - r(0,3,3)
   - r(1,1,3) - r(1,2,3) - r(1,3,3) - r(2,1,3) - r(2,2,3) - r(2,3,3)
   - r(3,1,3) - r(3,2,3) - r(3,3,3) - r(4,1,3) - r(4,2,3) - r(4,3,3) <= 0
 C4_facility_to_cluster(7,4): x(7,4) - r(0,1,4) - r(0,2,4) - r(0,3,4)
   - r(1,1,4) - r(1,2,4) - r(1,3,4) - r(2,1,4) - r(2,2,4) - r(2,3,4)
   - r(3,1,4) - r(3,2,4) - r(3,3,4) - r(4,1,4) - r(4,2,4) - r(4,3,4) <= 0
 C4_facility_to_cluster(8,0): x(8,0) - r(0,1,0) - r(0,2,0) - r(0,3,0)
   - r(1,1,0) - r(1,2,0) - r(1,3,0) - r(2,1,0) - r(2,2,0) - r(2,3,0)
   - r(3,1,0) - r(3,2,0) - r(3,3,0) - r(4,1,0) - r(4,2,0) - r(4,3,0) <= 0
 C4_facility_to_cluster(8,1): x(8,1) - r(0,1,1) - r(0,2,1) - r(0,3,1)
   - r(1,1,1) - r(1,2,1) - r(1,3,1) - r(2,1,1) - r(2,2,1) - r(2,3,1)
   - r(3,1,1) - r(3,2,1) - r(3,3,1) - r(4,1,1) - r(4,2,1) - r(4,3,1) <= 0
 C4_facility_to_cluster(8,2): x(8,2) - r(0,1,2) - r(0,2,2) - r(0,3,2)
   - r(1,1,2) - r(1,2,2) - r(1,3,2) - r(2,1,2) - r(2,2,2) - r(2,3,2)
   - r(3,1,2) - r(3,2,2) - r(3,3,2) - r(4,1,2) - r(4,2,2) - r(4,3,2) <= 0
 C4_facility_to_cluster(8,3): x(8,3) - r(0,1,3) - r(0,2,3) - r(0,3,3)
   - r(1,1,3) - r(1,2,3) - r(1,3,3) - r(2,1,3) - r(2,2,3) - r(2,3,3)
   - r(3,1,3) - r(3,2,3) - r(3,3,3) - r(4,1,3) - r(4,2,3) - r(4,3,3) <= 0
 C4_facility_to_cluster(8,4): x(8,4) - r(0,1,4) - r(0,2,4) - r(0,3,4)
   - r(1,1,4) - r(1,2,4) - r(1,3,4) - r(2,1,4) - r(2,2,4) - r(2,3,4)
   - r(3,1,4) - r(3,2,4) - r(3,3,4) - r(4,1,4) - r(4,2,4) - r(4,3,4) <= 0
 C4_facility_to_cluster(9,0): x(9,0) - r(0,1,0) - r(0,2,0) - r(0,3,0)
   - r(1,1,0) - r(1,2,0) - r(1,3,0) - r(2,1,0) - r(2,2,0) - r(2,3,0)
   - r(3,1,0) - r(3,2,0) - r(3,3,0) - r(4,1,0) - r(4,2,0) - r(4,3,0) <= 0
 C4_facility_to_cluster(9,1): x(9,1) - r(0,1,1) - r(0,2,1) - r(0,3,1)
   - r(1,1,1) - r(1,2,1) - r(1,3,1) - r(2,1,1) - r(2,2,1) - r(2,3,1)
   - r(3,1,1) - r(3,2,1) - r(3,3,1) - r(4,1,1) - r(4,2,1) - r(4,3,1) <= 0
 C4_facility_to_cluster(9,2): x(9,2) - r(0,1,2) - r(0,2,2) - r(0,3,2)
   - r(1,1,2) - r(1,2,2) - r(1,3,2) - r(2,1,2) - r(2,2,2) - r(2,3,2)
   - r(3,1,2) - r(3,2,2) - r(3,3,2) - r(4,1,2) - r(4,2,2) - r(4,3,2) <= 0
 C4_facility_to_cluster(9,3): x(9,3) - r(0,1,3) - r(0,2,3) - r(0,3,3)
   - r(1,1,3) - r(1,2,3) - r(1,3,3) - r(2,1,3) - r(2,2,3) - r(2,3,3)
   - r(3,1,3) - r(3,2,3) - r(3,3,3) - r(4,1,3) - r(4,2,3) - r(4,3,3) <= 0
 C4_facility_to_cluster(9,4): x(9,4) - r(0,1,4) - r(0,2,4) - r(0,3,4)
   - r(1,1,4) - r(1,2,4) - r(1,3,4) - r(2,1,4) - r(2,2,4) - r(2,3,4)
   - r(3,1,4) - r(3,2,4) - r(3,3,4) - r(4,1,4) - r(4,2,4) - r(4,3,4) <= 0
 C4_facility_to_cluster(10,0): x(10,0) - r(0,1,0) - r(0,2,0) - r(0,3,0)
   - r(1,1,0) - r(1,2,0) - r(1,3,0) - r(2,1,0) - r(2,2,0) - r(2,3,0)
   - r(3,1,0) - r(3,2,0) - r(3,3,0) - r(4,1,0) - r(4,2,0) - r(4,3,0) <= 0
 C4_facility_to_cluster(10,1): x(10,1) - r(0,1,1) - r(0,2,1) - r(0,3,1)
   - r(1,1,1) - r(1,2,1) - r(1,3,1) - r(2,1,1) - r(2,2,1) - r(2,3,1)
   - r(3,1,1) - r(3,2,1) - r(3,3,1) - r(4,1,1) - r(4,2,1) - r(4,3,1) <= 0
 C4_facility_to_cluster(10,2): x(10,2) - r(0,1,2) - r(0,2,2) - r(0,3,2)
   - r(1,1,2) - r(1,2,2) - r(1,3,2) - r(2,1,2) - r(2,2,2) - r(2,3,2)
   - r(3,1,2) - r(3,2,2) - r(3,3,2) - r(4,1,2) - r(4,2,2) - r(4,3,2) <= 0
 C4_facility_to_cluster(10,3): x(10,3) - r(0,1,3) - r(0,2,3) - r(0,3,3)
   - r(1,1,3) - r(1,2,3) - r(1,3,3) - r(2,1,3) - r(2,2,3) - r(2,3,3)
   - r(3,1,3) - r(3,2,3) - r(3,3,3) - r(4,1,3) - r(4,2,3) - r(4,3,3) <= 0
 C4_facility_to_cluster(10,4): x(10,4) - r(0,1,4) - r(0,2,4) - r(0,3,4)
   - r(1,1,4) - r(1,2,4) - r(1,3,4) - r(2,1,4) - r(2,2,4) - r(2,3,4)
   - r(3,1,4) - r(3,2,4) - r(3,3,4) - r(4,1,4) - r(4,2,4) - r(4,3,4) <= 0
 C4_facility_to_cluster(11,0): x(11,0) - r(0,1,0) - r(0,2,0) - r(0,3,0)
   - r(1,1,0) - r(1,2,0) - r(1,3,0) - r(2,1,0) - r(2,2,0) - r(2,3,0)
   - r(3,1,0) - r(3,2,0) - r(3,3,0) - r(4,1,0) - r(4,2,0) - r(4,3,0) <= 0
 C4_facility_to_cluster(11,1): x(11,1) - r(0,1,1) - r(0,2,1) - r(0,3,1)
   - r(1,1,1) - r(1,2,1) - r(1,3,1) - r(2,1,1) - r(2,2,1) - r(2,3,1)
   - r(3,1,1) - r(3,2,1) - r(3,3,1) - r(4,1,1) - r(4,2,1) - r(4,3,1) <= 0
 C4_facility_to_cluster(11,2): x(11,2) - r(0,1,2) - r(0,2,2) - r(0,3,2)
   - r(1,1,2) - r(1,2,2) - r(1,3,2) - r(2,1,2) - r(2,2,2) - r(2,3,2)
   - r(3,1,2) - r(3,2,2) - r(3,3,2) - r(4,1,2) - r(4,2,2) - r(4,3,2) <= 0
 C4_facility_to_cluster(11,3): x(11,3) - r(0,1,3) - r(0,2,3) - r(0,3,3)
   - r(1,1,3) - r(1,2,3) - r(1,3,3) - r(2,1,3) - r(2,2,3) - r(2,3,3)
   - r(3,1,3) - r(3,2,3) - r(3,3,3) - r(4,1,3) - r(4,2,3) - r(4,3,3) <= 0
 C4_facility_to_cluster(11,4): x(11,4) - r(0,1,4) - r(0,2,4) - r(0,3,4)
   - r(1,1,4) - r(1,2,4) - r(1,3,4) - r(2,1,4) - r(2,2,4) - r(2,3,4)
   - r(3,1,4) - r(3,2,4) - r(3,3,4) - r(4,1,4) - r(4,2,4) - r(4,3,4) <= 0
 C4_facility_to_cluster(12,0): x(12,0) - r(0,1,0) - r(0,2,0) - r(0,3,0)
   - r(1,1,0) - r(1,2,0) - r(1,3,0) - r(2,1,0) - r(2,2,0) - r(2,3,0)
   - r(3,1,0) - r(3,2,0) - r(3,3,0) - r(4,1,0) - r(4,2,0) - r(4,3,0) <= 0
 C4_facility_to_cluster(12,1): x(12,1) - r(0,1,1) - r(0,2,1) - r(0,3,1)
   - r(1,1,1) - r(1,2,1) - r(1,3,1) - r(2,1,1) - r(2,2,1) - r(2,3,1)
   - r(3,1,1) - r(3,2,1) - r(3,3,1) - r(4,1,1) - r(4,2,1) - r(4,3,1) <= 0
 C4_facility_to_cluster(12,2): x(12,2) - r(0,1,2) - r(0,2,2) - r(0,3,2)
   - r(1,1,2) - r(1,2,2) - r(1,3,2) - r(2,1,2) - r(2,2,2) - r(2,3,2)
   - r(3,1,2) - r(3,2,2) - r(3,3,2) - r(4,1,2) - r(4,2,2) - r(4,3,2) <= 0
 C4_facility_to_cluster(12,3): x(12,3) - r(0,1,3) - r(0,2,3) - r(0,3,3)
   - r(1,1,3) - r(1,2,3) - r(1,3,3) - r(2,1,3) - r(2,2,3) - r(2,3,3)
   - r(3,1,3) - r(3,2,3) - r(3,3,3) - r(4,1,3) - r(4,2,3) - r(4,3,3) <= 0
 C4_facility_to_cluster(12,4): x(12,4) - r(0,1,4) - r(0,2,4) - r(0,3,4)
   - r(1,1,4) - r(1,2,4) - r(1,3,4) - r(2,1,4) - r(2,2,4) - r(2,3,4)
   - r(3,1,4) - r(3,2,4) - r(3,3,4) - r(4,1,4) - r(4,2,4) - r(4,3,4) <= 0
 C4_facility_to_cluster(13,0): x(13,0) - r(0,1,0) - r(0,2,0) - r(0,3,0)
   - r(1,1,0) - r(1,2,0) - r(1,3,0) - r(2,1,0) - r(2,2,0) - r(2,3,0)
   - r(3,1,0) - r(3,2,0) - r(3,3,0) - r(4,1,0) - r(4,2,0) - r(4,3,0) <= 0
 C4_facility_to_cluster(13,1): x(13,1) - r(0,1,1) - r(0,2,1) - r(0,3,1)
   - r(1,1,1) - r(1,2,1) - r(1,3,1) - r(2,1,1) - r(2,2,1) - r(2,3,1)
   - r(3,1,1) - r(3,2,1) - r(3,3,1) - r(4,1,1) - r(4,2,1) - r(4,3,1) <= 0
 C4_facility_to_cluster(13,2): x(13,2) - r(0,1,2) - r(0,2,2) - r(0,3,2)
   - r(1,1,2) - r(1,2,2) - r(1,3,2) - r(2,1,2) - r(2,2,2) - r(2,3,2)
   - r(3,1,2) - r(3,2,2) - r(3,3,2) - r(4,1,2) - r(4,2,2) - r(4,3,2) <= 0
 C4_facility_to_cluster(13,3): x(13,3) - r(0,1,3) - r(0,2,3) - r(0,3,3)
   - r(1,1,3) - r(1,2,3) - r(1,3,3) - r(2,1,3) - r(2,2,3) - r(2,3,3)
   - r(3,1,3) - r(3,2,3) - r(3,3,3) - r(4,1,3) - r(4,2,3) - r(4,3,3) <= 0
 C4_facility_to_cluster(13,4): x(13,4) - r(0,1,4) - r(0,2,4) - r(0,3,4)
   - r(1,1,4) - r(1,2,4) - r(1,3,4) - r(2,1,4) - r(2,2,4) - r(2,3,4)
   - r(3,1,4) - r(3,2,4) - r(3,3,4) - r(4,1,4) - r(4,2,4) - r(4,3,4) <= 0
 C4_facility_to_cluster(14,0): x(14,0) - r(0,1,0) - r(0,2,0) - r(0,3,0)
   - r(1,1,0) - r(1,2,0) - r(1,3,0) - r(2,1,0) - r(2,2,0) - r(2,3,0)
   - r(3,1,0) - r(3,2,0) - r(3,3,0) - r(4,1,0) - r(4,2,0) - r(4,3,0) <= 0
 C4_facility_to_cluster(14,1): x(14,1) - r(0,1,1) - r(0,2,1) - r(0,3,1)
   - r(1,1,1) - r(1,2,1) - r(1,3,1) - r(2,1,1) - r(2,2,1) - r(2,3,1)
   - r(3,1,1) - r(3,2,1) - r(3,3,1) - r(4,1,1) - r(4,2,1) - r(4,3,1) <= 0
 C4_facility_to_cluster(14,2): x(14,2) - r(0,1,2) - r(0,2,2) - r(0,3,2)
   - r(1,1,2) - r(1,2,2) - r(1,3,2) - r(2,1,2) - r(2,2,2) - r(2,3,2)
   - r(3,1,2) - r(3,2,2) - r(3,3,2) - r(4,1,2) - r(4,2,2) - r(4,3,2) <= 0
 C4_facility_to_cluster(14,3): x(14,3) - r(0,1,3) - r(0,2,3) - r(0,3,3)
   - r(1,1,3) - r(1,2,3) - r(1,3,3) - r(2,1,3) - r(2,2,3) - r(2,3,3)
   - r(3,1,3) - r(3,2,3) - r(3,3,3) - r(4,1,3) - r(4,2,3) - r(4,3,3) <= 0
 C4_facility_to_cluster(14,4): x(14,4) - r(0,1,4) - r(0,2,4) - r(0,3,4)
   - r(1,1,4) - r(1,2,4) - r(1,3,4) - r(2,1,4) - r(2,2,4) - r(2,3,4)
   - r(3,1,4) - r(3,2,4) - r(3,3,4) - r(4,1,4) - r(4,2,4) - r(4,3,4) <= 0
 C4_facility_to_cluster(15,0): x(15,0) - r(0,1,0) - r(0,2,0) - r(0,3,0)
   - r(1,1,0) - r(1,2,0) - r(1,3,0) - r(2,1,0) - r(2,2,0) - r(2,3,0)
   - r(3,1,0) - r(3,2,0) - r(3,3,0) - r(4,1,0) - r(4,2,0) - r(4,3,0) <= 0
 C4_facility_to_cluster(15,1): x(15,1) - r(0,1,1) - r(0,2,1) - r(0,3,1)
   - r(1,1,1) - r(1,2,1) - r(1,3,1) - r(2,1,1) - r(2,2,1) - r(2,3,1)
   - r(3,1,1) - r(3,2,1) - r(3,3,1) - r(4,1,1) - r(4,2,1) - r(4,3,1) <= 0
 C4_facility_to_cluster(15,2): x(15,2) - r(0,1,2) - r(0,2,2) - r(0,3,2)
   - r(1,1,2) - r(1,2,2) - r(1,3,2) - r(2,1,2) - r(2,2,2) - r(2,3,2)
   - r(3,1,2) - r(3,2,2) - r(3,3,2) - r(4,1,2) - r(4,2,2) - r(4,3,2) <= 0
 C4_facility_to_cluster(15,3): x(15,3) - r(0,1,3) - r(0,2,3) - r(0,3,3)
   - r(1,1,3) - r(1,2,3) - r(1,3,3) - r(2,1,3) - r(2,2,3) - r(2,3,3)
   - r(3,1,3) - r(3,2,3) - r(3,3,3) - r(4,1,3) - r(4,2,3) - r(4,3,3) <= 0
 C4_facility_to_cluster(15,4): x(15,4) - r(0,1,4) - r(0,2,4) - r(0,3,4)
   - r(1,1,4) - r(1,2,4) - r(1,3,4) - r(2,1,4) - r(2,2,4) - r(2,3,4)
   - r(3,1,4) - r(3,2,4) - r(3,3,4) - r(4,1,4) - r(4,2,4) - r(4,3,4) <= 0
 C4_facility_to_cluster(16,0): x(16,0) - r(0,1,0) - r(0,2,0) - r(0,3,0)
   - r(1,1,0) - r(1,2,0) - r(1,3,0) - r(2,1,0) - r(2,2,0) - r(2,3,0)
   - r(3,1,0) - r(3,2,0) - r(3,3,0) - r(4,1,0) - r(4,2,0) - r(4,3,0) <= 0
 C4_facility_to_cluster(16,1): x(16,1) - r(0,1,1) - r(0,2,1) - r(0,3,1)
   - r(1,1,1) - r(1,2,1) - r(1,3,1) - r(2,1,1) - r(2,2,1) - r(2,3,1)
   - r(3,1,1) - r(3,2,1) - r(3,3,1) - r(4,1,1) - r(4,2,1) - r(4,3,1) <= 0
 C4_facility_to_cluster(16,2): x(16,2) - r(0,1,2) - r(0,2,2) - r(0,3,2)
   - r(1,1,2) - r(1,2,2) - r(1,3,2) - r(2,1,2) - r(2,2,2) - r(2,3,2)
   - r(3,1,2) - r(3,2,2) - r(3,3,2) - r(4,1,2) - r(4,2,2) - r(4,3,2) <= 0
 C4_facility_to_cluster(16,3): x(16,3) - r(0,1,3) - r(0,2,3) - r(0,3,3)
   - r(1,1,3) - r(1,2,3) - r(1,3,3) - r(2,1,3) - r(2,2,3) - r(2,3,3)
   - r(3,1,3) - r(3,2,3) - r(3,3,3) - r(4,1,3) - r(4,2,3) - r(4,3,3) <= 0
 C4_facility_to_cluster(16,4): x(16,4) - r(0,1,4) - r(0,2,4) - r(0,3,4)
   - r(1,1,4) - r(1,2,4) - r(1,3,4) - r(2,1,4) - r(2,2,4) - r(2,3,4)
   - r(3,1,4) - r(3,2,4) - r(3,3,4) - r(4,1,4) - r(4,2,4) - r(4,3,4) <= 0
 C4_facility_to_cluster(17,0): x(17,0) - r(0,1,0) - r(0,2,0) - r(0,3,0)
   - r(1,1,0) - r(1,2,0) - r(1,3,0) - r(2,1,0) - r(2,2,0) - r(2,3,0)
   - r(3,1,0) - r(3,2,0) - r(3,3,0) - r(4,1,0) - r(4,2,0) - r(4,3,0) <= 0
 C4_facility_to_cluster(17,1): x(17,1) - r(0,1,1) - r(0,2,1) - r(0,3,1)
   - r(1,1,1) - r(1,2,1) - r(1,3,1) - r(2,1,1) - r(2,2,1) - r(2,3,1)
   - r(3,1,1) - r(3,2,1) - r(3,3,1) - r(4,1,1) - r(4,2,1) - r(4,3,1) <= 0
 C4_facility_to_cluster(17,2): x(17,2) - r(0,1,2) - r(0,2,2) - r(0,3,2)
   - r(1,1,2) - r(1,2,2) - r(1,3,2) - r(2,1,2) - r(2,2,2) - r(2,3,2)
   - r(3,1,2) - r(3,2,2) - r(3,3,2) - r(4,1,2) - r(4,2,2) - r(4,3,2) <= 0
 C4_facility_to_cluster(17,3): x(17,3) - r(0,1,3) - r(0,2,3) - r(0,3,3)
   - r(1,1,3) - r(1,2,3) - r(1,3,3) - r(2,1,3) - r(2,2,3) - r(2,3,3)
   - r(3,1,3) - r(3,2,3) - r(3,3,3) - r(4,1,3) - r(4,2,3) - r(4,3,3) <= 0
 C4_facility_to_cluster(17,4): x(17,4) - r(0,1,4) - r(0,2,4) - r(0,3,4)
   - r(1,1,4) - r(1,2,4) - r(1,3,4) - r(2,1,4) - r(2,2,4) - r(2,3,4)
   - r(3,1,4) - r(3,2,4) - r(3,3,4) - r(4,1,4) - r(4,2,4) - r(4,3,4) <= 0
 C4_facility_to_cluster(18,0): x(18,0) - r(0,1,0) - r(0,2,0) - r(0,3,0)
   - r(1,1,0) - r(1,2,0) - r(1,3,0) - r(2,1,0) - r(2,2,0) - r(2,3,0)
   - r(3,1,0) - r(3,2,0) - r(3,3,0) - r(4,1,0) - r(4,2,0) - r(4,3,0) <= 0
 C4_facility_to_cluster(18,1): x(18,1) - r(0,1,1) - r(0,2,1) - r(0,3,1)
   - r(1,1,1) - r(1,2,1) - r(1,3,1) - r(2,1,1) - r(2,2,1) - r(2,3,1)
   - r(3,1,1) - r(3,2,1) - r(3,3,1) - r(4,1,1) - r(4,2,1) - r(4,3,1) <= 0
 C4_facility_to_cluster(18,2): x(18,2) - r(0,1,2) - r(0,2,2) - r(0,3,2)
   - r(1,1,2) - r(1,2,2) - r(1,3,2) - r(2,1,2) - r(2,2,2) - r(2,3,2)
   - r(3,1,2) - r(3,2,2) - r(3,3,2) - r(4,1,2) - r(4,2,2) - r(4,3,2) <= 0
 C4_facility_to_cluster(18,3): x(18,3) - r(0,1,3) - r(0,2,3) - r(0,3,3)
   - r(1,1,3) - r(1,2,3) - r(1,3,3) - r(2,1,3) - r(2,2,3) - r(2,3,3)
   - r(3,1,3) - r(3,2,3) - r(3,3,3) - r(4,1,3) - r(4,2,3) - r(4,3,3) <= 0
 C4_facility_to_cluster(18,4): x(18,4) - r(0,1,4) - r(0,2,4) - r(0,3,4)
   - r(1,1,4) - r(1,2,4) - r(1,3,4) - r(2,1,4) - r(2,2,4) - r(2,3,4)
   - r(3,1,4) - r(3,2,4) - r(3,3,4) - r(4,1,4) - r(4,2,4) - r(4,3,4) <= 0
 C4_facility_to_cluster(19,0): x(19,0) - r(0,1,0) - r(0,2,0) - r(0,3,0)
   - r(1,1,0) - r(1,2,0) - r(1,3,0) - r(2,1,0) - r(2,2,0) - r(2,3,0)
   - r(3,1,0) - r(3,2,0) - r(3,3,0) - r(4,1,0) - r(4,2,0) - r(4,3,0) <= 0
 C4_facility_to_cluster(19,1): x(19,1) - r(0,1,1) - r(0,2,1) - r(0,3,1)
   - r(1,1,1) - r(1,2,1) - r(1,3,1) - r(2,1,1) - r(2,2,1) - r(2,3,1)
   - r(3,1,1) - r(3,2,1) - r(3,3,1) - r(4,1,1) - r(4,2,1) - r(4,3,1) <= 0
 C4_facility_to_cluster(19,2): x(19,2) - r(0,1,2) - r(0,2,2) - r(0,3,2)
   - r(1,1,2) - r(1,2,2) - r(1,3,2) - r(2,1,2) - r(2,2,2) - r(2,3,2)
   - r(3,1,2) - r(3,2,2) - r(3,3,2) - r(4,1,2) - r(4,2,2) - r(4,3,2) <= 0
 C4_facility_to_cluster(19,3): x(19,3) - r(0,1,3) - r(0,2,3) - r(0,3,3)
   - r(1,1,3) - r(1,2,3) - r(1,3,3) - r(2,1,3) - r(2,2,3) - r(2,3,3)
   - r(3,1,3) - r(3,2,3) - r(3,3,3) - r(4,1,3) - r(4,2,3) - r(4,3,3) <= 0
 C4_facility_to_cluster(19,4): x(19,4) - r(0,1,4) - r(0,2,4) - r(0,3,4)
   - r(1,1,4) - r(1,2,4) - r(1,3,4) - r(2,1,4) - r(2,2,4) - r(2,3,4)
   - r(3,1,4) - r(3,2,4) - r(3,3,4) - r(4,1,4) - r(4,2,4) - r(4,3,4) <= 0
 C5_new_nj_iff_facility_is_open(0,1,0): - r(0,1,0) + n(0,1,0) <= 0
 C5_new_nj_iff_facility_is_open(0,1,1): - r(0,1,1) + n(0,1,1) <= 0
 C5_new_nj_iff_facility_is_open(0,1,2): - r(0,1,2) + n(0,1,2) <= 0
 C5_new_nj_iff_facility_is_open(0,1,3): - r(0,1,3) + n(0,1,3) <= 0
 C5_new_nj_iff_facility_is_open(0,1,4): - r(0,1,4) + n(0,1,4) <= 0
 C5_new_nj_iff_facility_is_open(0,2,0): - r(0,2,0) + n(0,2,0) <= 0
 C5_new_nj_iff_facility_is_open(0,2,1): - r(0,2,1) + n(0,2,1) <= 0
 C5_new_nj_iff_facility_is_open(0,2,2): - r(0,2,2) + n(0,2,2) <= 0
 C5_new_nj_iff_facility_is_open(0,2,3): - r(0,2,3) + n(0,2,3) <= 0
 C5_new_nj_iff_facility_is_open(0,2,4): - r(0,2,4) + n(0,2,4) <= 0
 C5_new_nj_iff_facility_is_open(0,3,0): - r(0,3,0) + n(0,3,0) <= 0
 C5_new_nj_iff_facility_is_open(0,3,1): - r(0,3,1) + n(0,3,1) <= 0
 C5_new_nj_iff_facility_is_open(0,3,2): - r(0,3,2) + n(0,3,2) <= 0
 C5_new_nj_iff_facility_is_open(0,3,3): - r(0,3,3) + n(0,3,3) <= 0
 C5_new_nj_iff_facility_is_open(0,3,4): - r(0,3,4) + n(0,3,4) <= 0
 C5_new_nj_iff_facility_is_open(1,1,0): - r(1,1,0) + n(1,1,0) <= 0
 C5_new_nj_iff_facility_is_open(1,1,1): - r(1,1,1) + n(1,1,1) <= 0
 C5_new_nj_iff_facility_is_open(1,1,2): - r(1,1,2) + n(1,1,2) <= 0
 C5_new_nj_iff_facility_is_open(1,1,3): - r(1,1,3) + n(1,1,3) <= 0
 C5_new_nj_iff_facility_is_open(1,1,4): - r(1,1,4) + n(1,1,4) <= 0
 C5_new_nj_iff_facility_is_open(1,2,0): - r(1,2,0) + n(1,2,0) <= 0
 C5_new_nj_iff_facility_is_open(1,2,1): - r(1,2,1) + n(1,2,1) <= 0
 C5_new_nj_iff_facility_is_open(1,2,2): - r(1,2,2) + n(1,2,2) <= 0
 C5_new_nj_iff_facility_is_open(1,2,3): - r(1,2,3) + n(1,2,3) <= 0
 C5_new_nj_iff_facility_is_open(1,2,4): - r(1,2,4) + n(1,2,4) <= 0
 C5_new_nj_iff_facility_is_open(1,3,0): - r(1,3,0) + n(1,3,0) <= 0
 C5_new_nj_iff_facility_is_open(1,3,1): - r(1,3,1) + n(1,3,1) <= 0
 C5_new_nj_iff_facility_is_open(1,3,2): - r(1,3,2) + n(1,3,2) <= 0
 C5_new_nj_iff_facility_is_open(1,3,3): - r(1,3,3) + n(1,3,3) <= 0
 C5_new_nj_iff_facility_is_open(1,3,4): - r(1,3,4) + n(1,3,4) <= 0
 C5_new_nj_iff_facility_is_open(2,1,0): - r(2,1,0) + n(2,1,0) <= 0
 C5_new_nj_iff_facility_is_open(2,1,1): - r(2,1,1) + n(2,1,1) <= 0
 C5_new_nj_iff_facility_is_open(2,1,2): - r(2,1,2) + n(2,1,2) <= 0
 C5_new_nj_iff_facility_is_open(2,1,3): - r(2,1,3) + n(2,1,3) <= 0
 C5_new_nj_iff_facility_is_open(2,1,4): - r(2,1,4) + n(2,1,4) <= 0
 C5_new_nj_iff_facility_is_open(2,2,0): - r(2,2,0) + n(2,2,0) <= 0
 C5_new_nj_iff_facility_is_open(2,2,1): - r(2,2,1) + n(2,2,1) <= 0
 C5_new_nj_iff_facility_is_open(2,2,2): - r(2,2,2) + n(2,2,2) <= 0
 C5_new_nj_iff_facility_is_open(2,2,3): - r(2,2,3) + n(2,2,3) <= 0
 C5_new_nj_iff_facility_is_open(2,2,4): - r(2,2,4) + n(2,2,4) <= 0
 C5_new_nj_iff_facility_is_open(2,3,0): - r(2,3,0) + n(2,3,0) <= 0
 C5_new_nj_iff_facility_is_open(2,3,1): - r(2,3,1) + n(2,3,1) <= 0
 C5_new_nj_iff_facility_is_open(2,3,2): - r(2,3,2) + n(2,3,2) <= 0
 C5_new_nj_iff_facility_is_open(2,3,3): - r(2,3,3) + n(2,3,3) <= 0
 C5_new_nj_iff_facility_is_open(2,3,4): - r(2,3,4) + n(2,3,4) <= 0
 C5_new_nj_iff_facility_is_open(3,1,0): - r(3,1,0) + n(3,1,0) <= 0
 C5_new_nj_iff_facility_is_open(3,1,1): - r(3,1,1) + n(3,1,1) <= 0
 C5_new_nj_iff_facility_is_open(3,1,2): - r(3,1,2) + n(3,1,2) <= 0
 C5_new_nj_iff_facility_is_open(3,1,3): - r(3,1,3) + n(3,1,3) <= 0
 C5_new_nj_iff_facility_is_open(3,1,4): - r(3,1,4) + n(3,1,4) <= 0
 C5_new_nj_iff_facility_is_open(3,2,0): - r(3,2,0) + n(3,2,0) <= 0
 C5_new_nj_iff_facility_is_open(3,2,1): - r(3,2,1) + n(3,2,1) <= 0
 C5_new_nj_iff_facility_is_open(3,2,2): - r(3,2,2) + n(3,2,2) <= 0
 C5_new_nj_iff_facility_is_open(3,2,3): - r(3,2,3) + n(3,2,3) <= 0
 C5_new_nj_iff_facility_is_open(3,2,4): - r(3,2,4) + n(3,2,4) <= 0
 C5_new_nj_iff_facility_is_open(3,3,0): - r(3,3,0) + n(3,3,0) <= 0
 C5_new_nj_iff_facility_is_open(3,3,1): - r(3,3,1) + n(3,3,1) <= 0
 C5_new_nj_iff_facility_is_open(3,3,2): - r(3,3,2) + n(3,3,2) <= 0
 C5_new_nj_iff_facility_is_open(3,3,3): - r(3,3,3) + n(3,3,3) <= 0
 C5_new_nj_iff_facility_is_open(3,3,4): - r(3,3,4) + n(3,3,4) <= 0
 C5_new_nj_iff_facility_is_open(4,1,0): - r(4,1,0) + n(4,1,0) <= 0
 C5_new_nj_iff_facility_is_open(4,1,1): - r(4,1,1) + n(4,1,1) <= 0
 C5_new_nj_iff_facility_is_open(4,1,2): - r(4,1,2) + n(4,1,2) <= 0
 C5_new_nj_iff_facility_is_open(4,1,3): - r(4,1,3) + n(4,1,3) <= 0
 C5_new_nj_iff_facility_is_open(4,1,4): - r(4,1,4) + n(4,1,4) <= 0
 C5_new_nj_iff_facility_is_open(4,2,0): - r(4,2,0) + n(4,2,0) <= 0
 C5_new_nj_iff_facility_is_open(4,2,1): - r(4,2,1) + n(4,2,1) <= 0
 C5_new_nj_iff_facility_is_open(4,2,2): - r(4,2,2) + n(4,2,2) <= 0
 C5_new_nj_iff_facility_is_open(4,2,3): - r(4,2,3) + n(4,2,3) <= 0
 C5_new_nj_iff_facility_is_open(4,2,4): - r(4,2,4) + n(4,2,4) <= 0
 C5_new_nj_iff_facility_is_open(4,3,0): - r(4,3,0) + n(4,3,0) <= 0
 C5_new_nj_iff_facility_is_open(4,3,1): - r(4,3,1) + n(4,3,1) <= 0
 C5_new_nj_iff_facility_is_open(4,3,2): - r(4,3,2) + n(4,3,2) <= 0
 C5_new_nj_iff_facility_is_open(4,3,3): - r(4,3,3) + n(4,3,3) <= 0
 C5_new_nj_iff_facility_is_open(4,3,4): - r(4,3,4) + n(4,3,4) <= 0
 C6_budjet: 100 r(0,1,0) + 100 r(0,1,1) + 100 r(0,1,2) + 100 r(0,1,3)
   + 100 r(0,1,4) + 150 r(0,2,0) + 150 r(0,2,1) + 150 r(0,2,2)
   + 150 r(0,2,3) + 150 r(0,2,4) + 180 r(0,3,0) + 180 r(0,3,1)
   + 180 r(0,3,2) + 180 r(0,3,3) + 180 r(0,3,4) + 100 r(1,1,0)
   + 100 r(1,1,1) + 100 r(1,1,2) + 100 r(1,1,3) + 100 r(1,1,4)
   + 150 r(1,2,0) + 150 r(1,2,1) + 150 r(1,2,2) + 150 r(1,2,3)
   + 150 r(1,2,4) + 180 r(1,3,0) + 180 r(1,3,1) + 180 r(1,3,2)
   + 180 r(1,3,3) + 180 r(1,3,4) + 100 r(2,1,0) + 100 r(2,1,1)
   + 100 r(2,1,2) + 100 r(2,1,3) + 100 r(2,1,4) + 150 r(2,2,0)
   + 150 r(2,2,1) + 150 r(2,2,2) + 150 r(2,2,3) + 150 r(2,2,4)
   + 180 r(2,3,0) + 180 r(2,3,1) + 180 r(2,3,2) + 180 r(2,3,3)
   + 180 r(2,3,4) + 100 r(3,1,0) + 100 r(3,1,1) + 100 r(3,1,2)
   + 100 r(3,1,3) + 100 r(3,1,4) + 150 r(3,2,0) + 150 r(3,2,1)
   + 150 r(3,2,2) + 150 r(3,2,3) + 150 r(3,2,4) + 180 r(3,3,0)
   + 180 r(3,3,1) + 180 r(3,3,2) + 180 r(3,3,3) + 180 r(3,3,4)
   + 100 r(4,1,0) + 100 r(4,1,1) + 100 r(4,1,2) + 100 r(4,1,3)
   + 100 r(4,1,4) + 150 r(4,2,0) + 150 r(4,2,1) + 150 r(4,2,2)
   + 150 r(4,2,3) + 150 r(4,2,4) + 180 r(4,3,0) + 180 r(4,3,1)
   + 180 r(4,3,2) + 180 r(4,3,3) + 180 r(4,3,4) <= 3000
 C7_min_clusters: r(0,1,0) + r(0,2,0) + r(0,3,0) + r(1,1,0) + r(1,2,0)
   + r(1,3,0) + r(2,1,0) + r(2,2,0) + r(2,3,0) + r(3,1,0) + r(3,2,0)
   + r(3,3,0) + r(4,1,0) + r(4,2,0) + r(4,3,0) <= 2
 C7_min_clusters: r(0,1,1) + r(0,2,1) + r(0,3,1) + r(1,1,1) + r(1,2,1)
   + r(1,3,1) + r(2,1,1) + r(2,2,1) + r(2,3,1) + r(3,1,1) + r(3,2,1)
   + r(3,3,1) + r(4,1,1) + r(4,2,1) + r(4,3,1) <= 2
 C7_min_clusters: r(0,1,2) + r(0,2,2) + r(0,3,2) + r(1,1,2) + r(1,2,2)
   + r(1,3,2) + r(2,1,2) + r(2,2,2) + r(2,3,2) + r(3,1,2) + r(3,2,2)
   + r(3,3,2) + r(4,1,2) + r(4,2,2) + r(4,3,2) <= 2
 C7_min_clusters: r(0,1,3) + r(0,2,3) + r(0,3,3) + r(1,1,3) + r(1,2,3)
   + r(1,3,3) + r(2,1,3) + r(2,2,3) + r(2,3,3) + r(3,1,3) + r(3,2,3)
   + r(3,3,3) + r(4,1,3) + r(4,2,3) + r(4,3,3) <= 2
 C7_min_clusters: r(0,1,4) + r(0,2,4) + r(0,3,4) + r(1,1,4) + r(1,2,4)
   + r(1,3,4) + r(2,1,4) + r(2,2,4) + r(2,3,4) + r(3,1,4) + r(3,2,4)
   + r(3,3,4) + r(4,1,4) + r(4,2,4) + r(4,3,4) <= 2
Bounds
 n(0,1,0) <= 1
 n(0,1,1) <= 1
 n(0,1,2) <= 1
 n(0,1,3) <= 1
 n(0,1,4) <= 1
 n(0,2,0) <= 1
 n(0,2,1) <= 1
 n(0,2,2) <= 1
 n(0,2,3) <= 1
 n(0,2,4) <= 1
 n(0,3,0) <= 1
 n(0,3,1) <= 1
 n(0,3,2) <= 1
 n(0,3,3) <= 1
 n(0,3,4) <= 1
 n(1,1,0) <= 1
 n(1,1,1) <= 1
 n(1,1,2) <= 1
 n(1,1,3) <= 1
 n(1,1,4) <= 1
 n(1,2,0) <= 1
 n(1,2,1) <= 1
 n(1,2,2) <= 1
 n(1,2,3) <= 1
 n(1,2,4) <= 1
 n(1,3,0) <= 1
 n(1,3,1) <= 1
 n(1,3,2) <= 1
 n(1,3,3) <= 1
 n(1,3,4) <= 1
 n(2,1,0) <= 1
 n(2,1,1) <= 1
 n(2,1,2) <= 1
 n(2,1,3) <= 1
 n(2,1,4) <= 1
 n(2,2,0) <= 1
 n(2,2,1) <= 1
 n(2,2,2) <= 1
 n(2,2,3) <= 1
 n(2,2,4) <= 1
 n(2,3,0) <= 1
 n(2,3,1) <= 1
 n(2,3,2) <= 1
 n(2,3,3) <= 1
 n(2,3,4) <= 1
 n(3,1,0) <= 1
 n(3,1,1) <= 1
 n(3,1,2) <= 1
 n(3,1,3) <= 1
 n(3,1,4) <= 1
 n(3,2,0) <= 1
 n(3,2,1) <= 1
 n(3,2,2) <= 1
 n(3,2,3) <= 1
 n(3,2,4) <= 1
 n(3,3,0) <= 1
 n(3,3,1) <= 1
 n(3,3,2) <= 1
 n(3,3,3) <= 1
 n(3,3,4) <= 1
 n(4,1,0) <= 1
 n(4,1,1) <= 1
 n(4,1,2) <= 1
 n(4,1,3) <= 1
 n(4,1,4) <= 1
 n(4,2,0) <= 1
 n(4,2,1) <= 1
 n(4,2,2) <= 1
 n(4,2,3) <= 1
 n(4,2,4) <= 1
 n(4,3,0) <= 1
 n(4,3,1) <= 1
 n(4,3,2) <= 1
 n(4,3,3) <= 1
 n(4,3,4) <= 1
Binaries
 x(5,0) x(5,1) x(5,2) x(5,3) x(5,4) x(6,0) x(6,1) x(6,2) x(6,3) x(6,4)
 x(7,0) x(7,1) x(7,2) x(7,3) x(7,4) x(8,0) x(8,1) x(8,2) x(8,3) x(8,4)
 x(9,0) x(9,1) x(9,2) x(9,3) x(9,4) x(10,0) x(10,1) x(10,2) x(10,3) x(10,4)
 x(11,0) x(11,1) x(11,2) x(11,3) x(11,4) x(12,0) x(12,1) x(12,2) x(12,3)
 x(12,4) x(13,0) x(13,1) x(13,2) x(13,3) x(13,4) x(14,0) x(14,1) x(14,2)
 x(14,3) x(14,4) x(15,0) x(15,1) x(15,2) x(15,3) x(15,4) x(16,0) x(16,1)
 x(16,2) x(16,3) x(16,4) x(17,0) x(17,1) x(17,2) x(17,3) x(17,4) x(18,0)
 x(18,1) x(18,2) x(18,3) x(18,4) x(19,0) x(19,1) x(19,2) x(19,3) x(19,4)
 r(0,1,0) r(0,1,1) r(0,1,2) r(0,1,3) r(0,1,4) r(0,2,0) r(0,2,1) r(0,2,2)
 r(0,2,3) r(0,2,4) r(0,3,0) r(0,3,1) r(0,3,2) r(0,3,3) r(0,3,4) r(1,1,0)
 r(1,1,1) r(1,1,2) r(1,1,3) r(1,1,4) r(1,2,0) r(1,2,1) r(1,2,2) r(1,2,3)
 r(1,2,4) r(1,3,0) r(1,3,1) r(1,3,2) r(1,3,3) r(1,3,4) r(2,1,0) r(2,1,1)
 r(2,1,2) r(2,1,3) r(2,1,4) r(2,2,0) r(2,2,1) r(2,2,2) r(2,2,3) r(2,2,4)
 r(2,3,0) r(2,3,1) r(2,3,2) r(2,3,3) r(2,3,4) r(3,1,0) r(3,1,1) r(3,1,2)
 r(3,1,3) r(3,1,4) r(3,2,0) r(3,2,1) r(3,2,2) r(3,2,3) r(3,2,4) r(3,3,0)
 r(3,3,1) r(3,3,2) r(3,3,3) r(3,3,4) r(4,1,0) r(4,1,1) r(4,1,2) r(4,1,3)
 r(4,1,4) r(4,2,0) r(4,2,1) r(4,2,2) r(4,2,3) r(4,2,4) r(4,3,0) r(4,3,1)
 r(4,3,2) r(4,3,3) r(4,3,4) y(0) y(1) y(2) y(3) y(4)
End
